% seed = 0

mint = 58;
% maxt = 260;

nActs = 20;
dur = [0,10,16,13,16,11,15,14,16,13,12,13,18,11,12,16,17,19,18,0];

nSkills = 3;
sreq = [| 0,0,0,
	| 1,2,0,
	| 3,2,0,
	| 1,0,2,
	| 3,2,0,
	| 1,0,2,
	| 0,0,2,
	| 2,0,2,
	| 2,2,2,
	| 2,2,0,
	| 0,0,2,
	| 1,2,2,
	| 3,0,2,
	| 0,2,2,
	| 0,0,2,
	| 0,2,2,
	| 2,2,0,
	| 0,2,2,
	| 0,0,2,
	| 0,0,0, |];

% SumOfsreq = 67;

nResources = 9;
mastery = [| true,false,false,
	| false,true,false,
	| false,true,true,
	| false,false,true,
	| true,false,true,
	| true,false,true,
	| true,false,true,
	| true,false,false,
	| false,true,false, |];

nPrecs = 31;
pred = [1,1,1,1,1,1,1,1,1,1,2,3,3,4,4,5,6,7,8,8,9,10,11,12,13,14,15,16,17,18,19];
succ = [2,3,5,6,7,12,13,14,16,19,11,9,4,18,15,20,20,8,10,11,15,20,17,20,20,20,20,20,20,20,20];

nUnrels = 136;
unpred = [2,2,2,2,2,2,2,2,2,2,2,2,2,2,2,3,3,3,3,3,3,3,3,3,3,3,3,4,4,4,4,4,4,4,4,4,4,4,4,4,5,5,5,5,5,5,5,5,5,5,5,5,5,5,6,6,6,6,6,6,6,6,6,6,6,6,6,7,7,7,7,7,7,7,7,8,8,8,8,8,8,8,8,9,9,9,9,9,9,9,9,9,10,10,10,10,10,10,10,10,10,11,11,11,11,11,11,11,12,12,12,12,12,12,12,13,13,13,13,13,13,14,14,14,14,14,15,15,15,15,16,16,16,17,17,18];
unsucc = [3,4,5,6,7,8,9,10,12,13,14,15,16,18,19,5,6,7,8,10,11,12,13,14,16,17,19,5,6,7,8,9,10,11,12,13,14,16,17,19,6,7,8,9,10,11,12,13,14,15,16,17,18,19,7,8,9,10,11,12,13,14,15,16,17,18,19,9,12,13,14,15,16,18,19,9,12,13,14,15,16,18,19,10,11,12,13,14,16,17,18,19,11,12,13,14,15,16,17,18,19,12,13,14,15,16,18,19,13,14,15,16,17,18,19,14,15,16,17,18,19,15,16,17,18,19,16,17,18,19,17,18,19,18,19,19];

USEFUL_RES = [{},
	{1,2,3,5,6,7,8,9},
	{1,2,3,5,6,7,8,9},
	{1,3,4,5,6,7,8},
	{1,2,3,5,6,7,8,9},
	{1,3,4,5,6,7,8},
	{3,4,5,6,7},
	{1,3,4,5,6,7,8},
	{1,2,3,4,5,6,7,8,9},
	{1,2,3,5,6,7,8,9},
	{3,4,5,6,7},
	{1,2,3,4,5,6,7,8,9},
	{1,3,4,5,6,7,8},
	{2,3,4,5,6,7,9},
	{3,4,5,6,7},
	{2,3,4,5,6,7,9},
	{1,2,3,5,6,7,8,9},
	{2,3,4,5,6,7,9},
	{3,4,5,6,7},
	{}];

POTENTIAL_ACT = [{2,3,4,5,6,8,9,10,12,13,17},
	{2,3,5,9,10,12,14,16,17,18},
	{2,3,4,5,6,7,8,9,10,11,12,13,14,15,16,17,18,19},
	{4,6,7,8,9,11,12,13,14,15,16,18,19},
	{2,3,4,5,6,7,8,9,10,11,12,13,14,15,16,17,18,19},
	{2,3,4,5,6,7,8,9,10,11,12,13,14,15,16,17,18,19},
	{2,3,4,5,6,7,8,9,10,11,12,13,14,15,16,17,18,19},
	{2,3,4,5,6,8,9,10,12,13,17},
	{2,3,5,9,10,12,14,16,17,18}];
